* ENCODING=ISO-8859-1
NAME          CPLEX
ROWS
 N  obj1    
 G  c1      
 G  c2      
 G  c3      
 G  c4      
 G  c5      
 G  c6      
 G  c7      
 G  c8      
 G  c9      
 G  c10     
 G  c11     
 G  c12     
 G  c13     
 G  c14     
 G  c15     
 G  c16     
 G  c17     
 G  c18     
 G  c19     
 G  c20     
 G  c21     
 G  c22     
 G  c23     
 G  c24     
 G  c25     
 G  c26     
 G  c27     
 G  c28     
 G  c29     
 G  c30     
 G  c31     
 G  c32     
 G  c33     
 G  c34     
 G  c35     
 G  c36     
 G  c37     
 G  c38     
 G  c39     
 G  c40     
COLUMNS
    MARK0000  'MARKER'                 'INTORG'
    x1        obj1                            1
    x1        c20                           596
    x2        obj1                            1
    x2        c5                            721
    x2        c16                           407
    x2        c17                           146
    x2        c23                           586
    x2        c39                           195
    x3        obj1                            1
    x3        c3                            251
    x3        c23                           549
    x3        c31                           117
    x3        c32                           543
    x3        c37                           407
    x4        obj1                            1
    x4        c4                            912
    x4        c5                            213
    x4        c25                           678
    x4        c28                           366
    x4        c31                           529
    x5        obj1                            1
    x5        c1                            208
    x5        c3                            106
    x5        c5                            613
    x5        c14                           205
    x5        c30                           364
    x5        c32                           923
    x5        c35                           657
    x6        obj1                            1
    x6        c8                            624
    x6        c9                            221
    x6        c10                           737
    x6        c11                           895
    x6        c16                           936
    x6        c24                           737
    x6        c30                           597
    x7        obj1                            1
    x7        c17                           398
    x7        c27                           898
    x8        obj1                            1
    x8        c15                           714
    x8        c22                           245
    x8        c24                           645
    x8        c26                           448
    x8        c36                           406
    x9        obj1                            1
    x9        c7                            385
    x9        c9                            431
    x9        c11                           258
    x9        c23                           272
    x9        c38                           680
    x10       obj1                            1
    x10       c5                            747
    x10       c24                           575
    x11       obj1                            1
    x11       c8                            900
    x11       c18                           696
    x11       c28                           428
    x12       obj1                            1
    x12       c2                            128
    x12       c8                            470
    x12       c9                            610
    x12       c12                           198
    x12       c35                           757
    x13       obj1                            1
    x13       c3                            210
    x13       c28                           534
    x14       obj1                            1
    x14       c2                            827
    x14       c20                           140
    x15       obj1                            1
    x15       c11                           657
    x15       c14                           543
    x15       c17                           256
    x15       c32                           122
    x16       obj1                            1
    x16       c19                           478
    x16       c25                           118
    x16       c39                           941
    x17       obj1                            1
    x17       c21                           911
    x17       c28                           580
    x18       obj1                            1
    x18       c1                            304
    x18       c14                           667
    x18       c17                           317
    x19       obj1                            1
    x19       c1                            191
    x19       c11                           345
    x19       c16                           653
    x20       obj1                            1
    x20       c3                            269
    x20       c4                            469
    x20       c17                           513
    x20       c19                           438
    x20       c22                           904
    x20       c25                           846
    x20       c33                           893
    x21       obj1                            1
    x21       c8                            342
    x21       c11                           251
    x21       c30                           588
    x21       c37                           738
    x21       c40                           687
    x22       obj1                            1
    x22       c5                            802
    x22       c11                           944
    x22       c24                           384
    x23       obj1                            1
    x23       c11                           606
    x23       c13                           794
    x23       c20                           574
    x23       c36                           944
    x24       obj1                            1
    x24       c5                            386
    x24       c11                           130
    x24       c14                           731
    x24       c17                           450
    x24       c21                           934
    x24       c25                           312
    x24       c31                           145
    x24       c32                           537
    x25       obj1                            1
    x25       c13                           314
    x25       c16                           130
    x25       c20                           230
    x25       c26                           665
    x25       c34                           752
    x25       c38                           706
    x26       obj1                            1
    x26       c2                            804
    x26       c7                            232
    x26       c35                           687
    x26       c36                           383
    x27       obj1                            1
    x27       c3                            687
    x27       c8                            870
    x27       c16                           360
    x27       c30                           747
    x27       c34                           867
    x28       obj1                            1
    x28       c4                            172
    x28       c6                            722
    x28       c16                           767
    x28       c21                           850
    x28       c25                           454
    x28       c27                           773
    x28       c28                           131
    x28       c34                           811
    x28       c35                           139
    x28       c37                           885
    x28       c40                           205
    x29       obj1                            1
    x29       c7                            735
    x29       c29                           826
    x29       c36                           737
    x30       obj1                            1
    x30       c5                            518
    x30       c12                           505
    x30       c27                           342
    x30       c28                           975
    x30       c29                           530
    x31       obj1                            1
    x31       c4                            362
    x31       c20                           242
    x31       c24                           911
    x31       c29                           569
    x31       c40                           989
    x32       obj1                            1
    x32       c7                            524
    x32       c9                            446
    x32       c11                           496
    x32       c22                           483
    x32       c25                           591
    x32       c33                           416
    x33       obj1                            1
    x33       c27                           956
    x33       c28                           794
    x33       c39                           601
    x34       obj1                            1
    x34       c7                            299
    x34       c14                           473
    x35       obj1                            1
    x35       c22                           956
    x35       c24                           761
    x35       c28                           792
    x36       obj1                            1
    x36       c3                            747
    x36       c17                           171
    x37       obj1                            1
    x37       c2                            665
    x37       c5                            839
    x37       c7                            376
    x37       c12                           638
    x37       c13                           833
    x37       c17                           342
    x37       c21                           262
    x37       c31                           353
    x38       obj1                            1
    x38       c3                            940
    x38       c4                            897
    x38       c10                           196
    x38       c36                           773
    x39       obj1                            1
    x39       c6                            204
    x40       obj1                            1
    x41       obj1                            1
    x41       c7                            480
    x41       c33                           825
    x41       c38                           987
    x42       obj1                            1
    x42       c7                            855
    x42       c30                           759
    x42       c31                           600
    x42       c32                           349
    x42       c33                           893
    x43       obj1                            1
    x43       c39                           417
    x43       c40                           837
    x44       obj1                            1
    x44       c19                           420
    x44       c25                           797
    x44       c32                           715
    x44       c36                           421
    x45       obj1                            1
    x45       c3                            870
    x45       c8                            131
    x45       c12                           329
    x45       c14                           749
    x45       c15                           216
    x45       c18                           476
    x45       c36                           419
    x46       obj1                            1
    x46       c3                            606
    x46       c16                           996
    x46       c27                           247
    x47       obj1                            1
    x47       c10                           869
    x47       c25                           735
    x47       c38                           216
    x48       obj1                            1
    x48       c5                            316
    x48       c31                           654
    x49       obj1                            1
    x49       c1                            703
    x49       c27                           523
    x49       c30                           723
    x49       c35                           499
    x50       obj1                            1
    x50       c8                            683
    x50       c11                           748
    x50       c13                           720
    x50       c18                           277
    x50       c22                           655
    x50       c27                           593
    x50       c32                           267
    x50       c35                           139
    x51       obj1                            1
    x51       c15                           693
    x51       c17                           878
    x52       obj1                            1
    x52       c2                            282
    x52       c10                           685
    x52       c26                           862
    x52       c30                           294
    x53       obj1                            1
    x53       c15                           402
    x53       c24                           382
    x53       c32                           493
    x54       obj1                            1
    x54       c3                            364
    x54       c9                            235
    x54       c15                           472
    x54       c26                           799
    x54       c28                           734
    x55       obj1                            1
    x55       c19                           724
    x55       c23                           965
    x55       c27                           238
    x55       c30                           980
    x55       c36                           790
    x56       obj1                            1
    x56       c21                           570
    x56       c31                           475
    x57       obj1                            1
    x57       c32                           494
    x57       c36                           872
    x57       c40                           817
    x58       obj1                            1
    x58       c30                           831
    x59       obj1                            1
    x59       c30                           874
    x59       c37                           507
    x59       c40                           549
    x60       obj1                            1
    x60       c10                           854
    x60       c22                           426
    x60       c36                           330
    x61       obj1                            1
    x61       c2                            189
    x61       c11                           677
    x61       c16                           929
    x61       c39                           599
    x62       obj1                            1
    x62       c2                            966
    x62       c5                            707
    x62       c14                           260
    x63       obj1                            1
    x63       c9                            400
    x63       c16                           211
    x63       c25                           701
    x63       c31                           721
    x63       c40                           118
    x64       obj1                            1
    x64       c9                            494
    x64       c10                           911
    x64       c24                           217
    x64       c40                           391
    x65       obj1                            1
    x65       c6                            990
    x65       c14                           326
    x65       c28                           242
    x65       c29                           481
    x65       c31                           936
    x65       c32                           436
    x66       obj1                            1
    x66       c6                            373
    x66       c27                           438
    x66       c39                           111
    x67       obj1                            1
    x67       c7                            759
    x67       c8                            960
    x67       c37                           929
    x68       obj1                            1
    x68       c8                            288
    x68       c16                           155
    x68       c36                           806
    x69       obj1                            1
    x69       c3                            330
    x69       c24                           541
    x70       obj1                            1
    x70       c14                           840
    x70       c21                           897
    x70       c22                           962
    x70       c29                           893
    x71       obj1                            1
    x71       c22                           549
    x71       c25                           157
    x71       c32                           283
    x72       obj1                            1
    x72       c5                            670
    x72       c7                            591
    x72       c27                           488
    x72       c33                           619
    x73       obj1                            1
    x73       c34                           756
    x74       obj1                            1
    x74       c6                            739
    x74       c8                            617
    x74       c12                           444
    x74       c16                           999
    x74       c18                           380
    x74       c21                           884
    x75       obj1                            1
    x75       c2                            171
    x75       c30                           223
    x75       c33                           713
    x75       c34                           175
    x76       obj1                            1
    x77       obj1                            1
    x77       c2                            727
    x77       c9                            463
    x77       c13                           882
    x77       c18                           206
    x77       c28                           170
    x78       obj1                            1
    x78       c24                           796
    x78       c30                           856
    x78       c33                           898
    x79       obj1                            1
    x79       c2                            447
    x79       c10                           439
    x79       c17                           349
    x79       c22                           791
    x79       c23                           651
    x79       c31                           519
    x79       c35                           131
    x80       obj1                            1
    x80       c1                            531
    x80       c5                            920
    x80       c9                            106
    x80       c16                           900
    x80       c19                           777
    x80       c25                           553
    x80       c37                           289
    MARK0001  'MARKER'                 'INTEND'
RHS
    rhs       c1                            969
    rhs       c2                           2603
    rhs       c3                           2690
    rhs       c4                           1406
    rhs       c5                           3726
    rhs       c6                           1514
    rhs       c7                           2618
    rhs       c8                           2943
    rhs       c9                           1703
    rhs       c10                          2346
    rhs       c11                          3004
    rhs       c12                          1057
    rhs       c13                          1772
    rhs       c14                          2397
    rhs       c15                          1249
    rhs       c16                          3722
    rhs       c17                          1910
    rhs       c18                          1018
    rhs       c19                          1419
    rhs       c20                           891
    rhs       c21                          2654
    rhs       c22                          2986
    rhs       c23                          1512
    rhs       c24                          2975
    rhs       c25                          2971
    rhs       c26                          1387
    rhs       c27                          2748
    rhs       c28                          2873
    rhs       c29                          1650
    rhs       c30                          3918
    rhs       c31                          2525
    rhs       c32                          2581
    rhs       c33                          2629
    rhs       c34                          1681
    rhs       c35                          1505
    rhs       c36                          3441
    rhs       c37                          1878
    rhs       c38                          1295
    rhs       c39                          1432
    rhs       c40                          2297
BOUNDS
 LI bnd       x1        0
 LI bnd       x2        0
 LI bnd       x3        0
 LI bnd       x4        0
 LI bnd       x5        0
 LI bnd       x6        0
 LI bnd       x7        0
 LI bnd       x8        0
 LI bnd       x9        0
 LI bnd       x10       0
 LI bnd       x11       0
 LI bnd       x12       0
 LI bnd       x13       0
 LI bnd       x14       0
 LI bnd       x15       0
 LI bnd       x16       0
 LI bnd       x17       0
 LI bnd       x18       0
 LI bnd       x19       0
 LI bnd       x20       0
 LI bnd       x21       0
 LI bnd       x22       0
 LI bnd       x23       0
 LI bnd       x24       0
 LI bnd       x25       0
 LI bnd       x26       0
 LI bnd       x27       0
 LI bnd       x28       0
 LI bnd       x29       0
 LI bnd       x30       0
 LI bnd       x31       0
 LI bnd       x32       0
 LI bnd       x33       0
 LI bnd       x34       0
 LI bnd       x35       0
 LI bnd       x36       0
 LI bnd       x37       0
 LI bnd       x38       0
 LI bnd       x39       0
 LI bnd       x40       0
 LI bnd       x41       0
 LI bnd       x42       0
 LI bnd       x43       0
 LI bnd       x44       0
 LI bnd       x45       0
 LI bnd       x46       0
 LI bnd       x47       0
 LI bnd       x48       0
 LI bnd       x49       0
 LI bnd       x50       0
 LI bnd       x51       0
 LI bnd       x52       0
 LI bnd       x53       0
 LI bnd       x54       0
 LI bnd       x55       0
 LI bnd       x56       0
 LI bnd       x57       0
 LI bnd       x58       0
 LI bnd       x59       0
 LI bnd       x60       0
 LI bnd       x61       0
 LI bnd       x62       0
 LI bnd       x63       0
 LI bnd       x64       0
 LI bnd       x65       0
 LI bnd       x66       0
 LI bnd       x67       0
 LI bnd       x68       0
 LI bnd       x69       0
 LI bnd       x70       0
 LI bnd       x71       0
 LI bnd       x72       0
 LI bnd       x73       0
 LI bnd       x74       0
 LI bnd       x75       0
 LI bnd       x76       0
 LI bnd       x77       0
 LI bnd       x78       0
 LI bnd       x79       0
 LI bnd       x80       0
ENDATA
